DATASET = "thpack6";
INSTANCE = "069";

WIDTH = 233;
HEIGHT = 220;
LENGTH = 587;

NO_OF_SHAPES = 15;
size = [|
  91,50,32 |
  118,66,40 |
  75,69,32 |
  81,73,32 |
  97,69,33 |
  97,31,27 |
  57,54,29 |
  77,71,62 |
  116,84,27 |
  85,30,29 |
  112,51,41 |
  87,81,23 |
  49,44,26 |
  63,59,38 |
  82,44,33 |
|];

verticality = [|
  0,1,1 |
  0,1,1 |
  0,0,1 |
  0,0,1 |
  0,0,1 |
  0,1,1 |
  1,1,1 |
  1,1,1 |
  0,0,1 |
  0,1,1 |
  0,1,1 |
  0,0,1 |
  1,1,1 |
  1,1,1 |
  0,1,1 |
|];

box_count = [
  11,
  19,
  8,
  9,
  15,
  10,
  13,
  10,
  9,
  9,
  11,
  11,
  13,
  9,
  10,
];
